proyfinal/src/viki/013/andrea/andrea-localstore/experimentInOfficeAgust.take6/worker_9/246d1f20-8c6d-4fcc-b511-eaaa7e272390.als.cnf.out
Reading from standard input... Use '--help' for help.
============================[ Problem Statistics ]=============================
|                                                                             |
|  Number of variables:         87638                                         |
|  Number of clauses:          161767                                         |
|  Parse time:                   0.03 s                                       |
|                                                                             |
============================[ Search Statistics ]==============================
| Conflicts |          ORIGINAL         |          LEARNT          | Progress |
|           |    Vars  Clauses Literals |    Limit  Clauses Lit/Cl |          |
===============================================================================
|       100 |   62689   106268   265668 |    38964      100     10 | 28.468 % |
|       250 |   62689   106268   265668 |    42861      250    105 | 28.468 % |
|       475 |   62670   106192   265492 |    47147      473    103 | 28.490 % |
|       812 |   62670   106192   265492 |    51862      810     82 | 28.490 % |
|      1318 |   62646   106092   265263 |    57048     1315     81 | 28.517 % |
|      2077 |   62646   106092   265263 |    62753     2074     93 | 28.517 % |
|      3216 |   62645   106048   265173 |    69028     3211     89 | 28.518 % |
|      4924 |   62627   105978   265001 |    75931     4561     83 | 28.539 % |
|      7486 |   47818    62278   157796 |    83524     6987     78 | 45.437 % |
===============================================================================
restarts              : 44
conflicts             : 9929           (6109 /sec)
decisions             : 34075          (0.00 % random) (20965 /sec)
propagations          : 16813765       (10344959 /sec)
conflict literals     : 650720         (54.82 % deleted)
Memory used           : 26.16 MB
CPU time              : 1.62531 s

UNSATISFIABLE
